problems/GracefulHelms/GracefulHelms-models/compact/O2/lingeling/model-n12-solution000001.eprime-solution
language ESSENCE' 1.0

letting colouring_Function1D be
        [15, 1, 3, 30, 17, 0, 4, 27, 24, 31, 5, 35, 26, 29, 25, 20, 32, 34, 28, 9, 8, 2, 13, 10, 36; int(0..24)]
letting edgeID_Function1D be
        [14, 2, 27, 13, 17, 4, 23, 3, 7, 26, 30, 20, 11, 28, 22, 10, 15, 34, 24, 18, 16, 29, 8, 25, 21, 35, 33, 6, 19,
         36, 32, 9, 12, 5, 31, 1; int(0..35)]
